Si9 O18
1.0
   4.9160000000000013    0.0000000000000000    0.0000000000000003
   0.0000000000000009    5.4054000000000002    0.0000000000000003
   0.0000000000000000    0.0000000000000000   38.3164279650387058
Si O
9 18
cartesian
   3.9416488000000012    0.0000000000000001    1.6876257828157051 Si
   0.0312166000000012    3.6036000000000006    3.9453148661334860 Si
   1.4836488000000010    1.8018000000000003    1.9456230644469659 Si
   1.4836488000000012    0.0000000000000004    5.9450066678200049 Si
   2.4892166000000020    3.6036000000000010    8.2026957511377869 Si
   3.9416488000000025    1.8018000000000005    6.2030039494512650 Si
   3.9416488000000047    0.0000000000000007   10.2023875528243035 Si
   0.0312166000000044    3.6036000000000010   12.4600766361420838 Si
   1.4836488000000025    1.8018000000000010   10.4603848344555672 Si
   0.4758688000000005    0.6437831400000001    1.4483609770784627 O
   1.5568972000000003    2.9598168600000001    0.8242289393368327 O
   4.0148972000000018    4.2473831400000002    2.8090199079258378 O
   2.9338688000000013    1.1580168600000005    2.1848878701842072 O
   0.9657482000000014    2.4455831400000014    3.3211828283918554 O
   3.4237482000000017    4.7616168600000002    0.3120660188708155 O
   2.9338688000000013    0.6437831400000006    5.7057418620827622 O
   4.0148972000000027    2.9598168600000005    5.0816098243411334 O
   1.5568972000000030    4.2473831400000011    7.0664007929301373 O
   0.4758688000000025    1.1580168600000005    6.4422687551885058 O
   3.4237482000000030    2.4455831400000014    7.5785637133961545 O
   0.9657482000000016    4.7616168600000002    4.5694469038751153 O
   0.4758688000000023    0.6437831400000008    9.9631227470870645 O
   1.5568972000000030    2.9598168600000005    9.3389907093454330 O
   4.0148972000000054    4.2473831400000011   11.3237816779344378 O
   2.9338688000000031    1.1580168600000009   10.6996496401928081 O
   0.9657482000000034    2.4455831400000019   11.8359445984004559 O
   3.4237482000000052    4.7616168600000011    8.8268277888794131 O
